p cnf 11 49
-5 -1 -6 0
-7 1 3 0
-9 -1 3 0
5 8 7 0
7 -5 -6 0
-11 3 5 0
11 9 10 0
5 -11 -10 0
-11 2 -5 0
1 -8 10 0
-2 -10 -1 0
2 4 -5 0
-1 -2 4 0
-9 8 -7 0
-7 2 11 0
-1 3 5 0
3 -6 -5 0
2 7 -9 0
-2 9 3 0
-6 -9 2 0
7 9 3 0
-3 7 11 0
-7 4 1 0
1 3 7 0
-9 8 -5 0
-4 9 -10 0
-7 -8 6 0
7 2 9 0
1 7 -5 0
4 -5 11 0
10 3 -5 0
4 3 1 0
-3 8 11 0
-7 10 4 0
-11 9 8 0
8 -5 -7 0
-11 6 -8 0
-9 4 1 0
3 9 -5 0
3 8 -4 0
-5 1 -8 0
9 -5 2 0
10 -6 -5 0
-8 -7 -10 0
10 -6 11 0
7 4 -3 0
-5 6 10 0
-2 7 4 0
-6 -2 -11 0
